20J6M/DAT/20J6MNTL-17.dat
20 6
28.8291 28.8291
25.0373 25.0373
21.7807 21.7807
28.0002 28.0002
25.6893 25.6893
29.5496 29.5496
28.9471 28.9471
20.0888 20.0888
18.1443 18.1443
24.8454 24.8454
20.5802 20.5802
20.154 20.154
19.4708 19.4708
29.9909 29.9909
28.0405 28.0405
25.4952 25.4952
28.8436 28.8436
17.8816 17.8816
24.7157 24.7157
27.1105 27.1105
61.6493