20J6M/SOL/20J6MNTL-17.sol
solution status: optimal solution found
objective value:                              61.6493
x#1#4                                               1 	(obj:0)
x#3#3                               0.251112223206784 	(obj:0)
x#4#1                               0.322983407261377 	(obj:0)
x#5#6                                               1 	(obj:0)
x#6#5                                               1 	(obj:0)
x#7#5                              0.0728501300648424 	(obj:0)
x#7#6                               0.927149869935158 	(obj:0)
x#8#2                                               1 	(obj:0)
x#9#3                                               1 	(obj:0)
x#10#2                             0.0607557133312405 	(obj:0)
x#11#2                                              1 	(obj:0)
x#12#3                                              1 	(obj:0)
x#13#2                                              1 	(obj:0)
x#14#5                                              1 	(obj:0)
x#15#4                                              1 	(obj:0)
x#16#1                                              1 	(obj:0)
x#17#4                              0.165710937608343 	(obj:0)
x#17#6                              0.316246931728355 	(obj:0)
x#18#3                                              1 	(obj:0)
x#20#1                                              1 	(obj:0)
z                                             61.6493 	(obj:1)
